9
0, 500, 699, 346, 151, 923, 970, 562, 739
500, 0, 298, 511, 475, 432, 477, 309, 422
699, 298, 0, 545, 724, 465, 343, 185, 666
346, 511, 545, 0, 476, 924, 879, 362, 894
151, 475, 724, 476, 0, 867, 952, 618, 626
923, 432, 465, 924, 867, 0, 246, 618, 411
970, 477, 343, 879, 952, 246, 0, 527, 629
562, 309, 185, 362, 618, 618, 527, 0, 729
739, 422, 666, 894, 626, 411, 629, 729, 0
